32	0

0	1	2
8	1	3
9	1	4
7	1	5
3	1	6
8	1	7
5	1	8
4	1	9
6	1	10
4	2	11	12
5	1	13
5	1	13
3	1	14
2	1	15
1	1	16
7	1	17
5	2	18	19
7	1	20
8	1	21
1	1	21
6	1	22
9	1	23
10	1	24
3	2	25	26
8	2	28	29
1	1	27
7	2	28	29
7	1	30
1	1	30
5	1	31
5	1	32
0	0
